Route #1: 2 48 38 26 22 17 50 12 23
Route #2: 16 9 34 32 19 15 49 13 46
Route #3: 4 45 14 39 21 11 28 24 31 3
Route #4: 40 42 20 18 30 1 41
Route #5: 25 36 6 47 37
Route #6: 44 10 29 27 8 5 51
Route #7: 7 43 35 33
Cost 754